(set-logic AUFLIRA)
(declare-const res Bool)
(declare-const y Bool)
(declare-const z Bool)
(declare-const a Bool)
(declare-const b Bool)
(assert (= res (and y z a b)))
(declare-const x Int)
(assert (= x (+ 2 3 4)))
(check-sat)
(get-value (res))
(get-value (x))
(exit)